
Gurobi 13.0.2 (win64) logging started Fri Jul 24 09:25:14 2026

Set parameter LogFile to value "E:\codes\ExactEBRP\results\gf_c0_mechanism_transfer_c5_round30\runs\stage2__moderate_seed5301__c4_candidate__300s\external\native_logs\L0.0.1.1.1.0.0.1_lp.gurobi.log"
Gurobi Optimizer version 13.0.2 build v13.0.2rc1 (win64 - Windows 10.0 (19045.2))

CPU model: 12th Gen Intel(R) Core(TM) i7-12700KF, instruction set [SSE2|AVX|AVX2]
Thread count: 12 physical cores, 20 logical processors, using up to 1 threads

Non-default parameters:
TimeLimit  207.1238388
MIPGap  0
MIPGapAbs  0
LogToConsole  0
Threads  1

Optimize a model with 11944 rows, 3386 columns and 67436 nonzeros (Min)
Model fingerprint: 0x55eb6cef
Model has 21 linear objective coefficients
Coefficient statistics:
  Matrix range     [9e-03, 1e+04]
  Objective range  [9e-03, 1e+00]
  Bounds range     [2e-02, 2e+02]
  RHS range        [2e-02, 5e+04]

Presolve removed 545 rows and 102 columns
Presolve time: 0.03s
Presolved: 11399 rows, 3393 columns, 65839 nonzeros

Iteration    Objective       Primal Inf.    Dual Inf.      Time
       0    1.8798571e-02   2.346419e+02   0.000000e+00      0s
    4228    7.8496755e-02   0.000000e+00   0.000000e+00      0s

Solved in 4228 iterations and 0.32 seconds (0.96 work units)
Optimal objective  7.849675459e-02

User-callback calls 4372, time in user-callback 0.00 sec
